certificates/rado_a5_c216_N43.cnf
c Rad2 upper bound instance: x1 + 5*x2 - x3 = 216, interval [1,43]
p cnf 43 396
1 2 43 0
-1 -2 -43 0
2 3 43 0
-2 -3 -43 0
3 4 43 0
-3 -4 -43 0
4 5 43 0
-4 -5 -43 0
5 6 43 0
-5 -6 -43 0
1 7 42 0
-1 -7 -42 0
6 7 43 0
-6 -7 -43 0
2 8 42 0
-2 -8 -42 0
7 8 43 0
-7 -8 -43 0
3 9 42 0
-3 -9 -42 0
8 9 43 0
-8 -9 -43 0
4 10 42 0
-4 -10 -42 0
9 10 43 0
-9 -10 -43 0
5 11 42 0
-5 -11 -42 0
10 11 43 0
-10 -11 -43 0
1 12 41 0
-1 -12 -41 0
6 12 42 0
-6 -12 -42 0
11 12 43 0
-11 -12 -43 0
2 13 41 0
-2 -13 -41 0
7 13 42 0
-7 -13 -42 0
12 13 43 0
-12 -13 -43 0
3 14 41 0
-3 -14 -41 0
8 14 42 0
-8 -14 -42 0
13 14 43 0
-13 -14 -43 0
4 15 41 0
-4 -15 -41 0
9 15 42 0
-9 -15 -42 0
14 15 43 0
-14 -15 -43 0
5 16 41 0
-5 -16 -41 0
10 16 42 0
-10 -16 -42 0
15 16 43 0
-15 -16 -43 0
1 17 40 0
-1 -17 -40 0
6 17 41 0
-6 -17 -41 0
11 17 42 0
-11 -17 -42 0
16 17 43 0
-16 -17 -43 0
2 18 40 0
-2 -18 -40 0
7 18 41 0
-7 -18 -41 0
12 18 42 0
-12 -18 -42 0
17 18 43 0
-17 -18 -43 0
3 19 40 0
-3 -19 -40 0
8 19 41 0
-8 -19 -41 0
13 19 42 0
-13 -19 -42 0
18 19 43 0
-18 -19 -43 0
4 20 40 0
-4 -20 -40 0
9 20 41 0
-9 -20 -41 0
14 20 42 0
-14 -20 -42 0
19 20 43 0
-19 -20 -43 0
5 21 40 0
-5 -21 -40 0
10 21 41 0
-10 -21 -41 0
15 21 42 0
-15 -21 -42 0
20 21 43 0
-20 -21 -43 0
1 22 39 0
-1 -22 -39 0
6 22 40 0
-6 -22 -40 0
11 22 41 0
-11 -22 -41 0
16 22 42 0
-16 -22 -42 0
21 22 43 0
-21 -22 -43 0
2 23 39 0
-2 -23 -39 0
7 23 40 0
-7 -23 -40 0
12 23 41 0
-12 -23 -41 0
17 23 42 0
-17 -23 -42 0
22 23 43 0
-22 -23 -43 0
3 24 39 0
-3 -24 -39 0
8 24 40 0
-8 -24 -40 0
13 24 41 0
-13 -24 -41 0
18 24 42 0
-18 -24 -42 0
23 24 43 0
-23 -24 -43 0
4 25 39 0
-4 -25 -39 0
9 25 40 0
-9 -25 -40 0
14 25 41 0
-14 -25 -41 0
19 25 42 0
-19 -25 -42 0
24 25 43 0
-24 -25 -43 0
5 26 39 0
-5 -26 -39 0
10 26 40 0
-10 -26 -40 0
15 26 41 0
-15 -26 -41 0
20 26 42 0
-20 -26 -42 0
25 26 43 0
-25 -26 -43 0
1 27 38 0
-1 -27 -38 0
6 27 39 0
-6 -27 -39 0
11 27 40 0
-11 -27 -40 0
16 27 41 0
-16 -27 -41 0
21 27 42 0
-21 -27 -42 0
26 27 43 0
-26 -27 -43 0
2 28 38 0
-2 -28 -38 0
7 28 39 0
-7 -28 -39 0
12 28 40 0
-12 -28 -40 0
17 28 41 0
-17 -28 -41 0
22 28 42 0
-22 -28 -42 0
27 28 43 0
-27 -28 -43 0
3 29 38 0
-3 -29 -38 0
8 29 39 0
-8 -29 -39 0
13 29 40 0
-13 -29 -40 0
18 29 41 0
-18 -29 -41 0
23 29 42 0
-23 -29 -42 0
28 29 43 0
-28 -29 -43 0
4 30 38 0
-4 -30 -38 0
9 30 39 0
-9 -30 -39 0
14 30 40 0
-14 -30 -40 0
19 30 41 0
-19 -30 -41 0
24 30 42 0
-24 -30 -42 0
29 30 43 0
-29 -30 -43 0
5 31 38 0
-5 -31 -38 0
10 31 39 0
-10 -31 -39 0
15 31 40 0
-15 -31 -40 0
20 31 41 0
-20 -31 -41 0
25 31 42 0
-25 -31 -42 0
30 31 43 0
-30 -31 -43 0
1 32 37 0
-1 -32 -37 0
6 32 38 0
-6 -32 -38 0
11 32 39 0
-11 -32 -39 0
16 32 40 0
-16 -32 -40 0
21 32 41 0
-21 -32 -41 0
26 32 42 0
-26 -32 -42 0
31 32 43 0
-31 -32 -43 0
2 33 37 0
-2 -33 -37 0
7 33 38 0
-7 -33 -38 0
12 33 39 0
-12 -33 -39 0
17 33 40 0
-17 -33 -40 0
22 33 41 0
-22 -33 -41 0
27 33 42 0
-27 -33 -42 0
32 33 43 0
-32 -33 -43 0
3 34 37 0
-3 -34 -37 0
8 34 38 0
-8 -34 -38 0
13 34 39 0
-13 -34 -39 0
18 34 40 0
-18 -34 -40 0
23 34 41 0
-23 -34 -41 0
28 34 42 0
-28 -34 -42 0
33 34 43 0
-33 -34 -43 0
4 35 37 0
-4 -35 -37 0
9 35 38 0
-9 -35 -38 0
14 35 39 0
-14 -35 -39 0
19 35 40 0
-19 -35 -40 0
24 35 41 0
-24 -35 -41 0
29 35 42 0
-29 -35 -42 0
34 35 43 0
-34 -35 -43 0
5 36 37 0
-5 -36 -37 0
10 36 38 0
-10 -36 -38 0
15 36 39 0
-15 -36 -39 0
20 36 40 0
-20 -36 -40 0
25 36 41 0
-25 -36 -41 0
30 36 42 0
-30 -36 -42 0
35 36 43 0
-35 -36 -43 0
1 36 37 0
-1 -36 -37 0
6 37 0
-6 -37 0
11 37 38 0
-11 -37 -38 0
16 37 39 0
-16 -37 -39 0
21 37 40 0
-21 -37 -40 0
26 37 41 0
-26 -37 -41 0
31 37 42 0
-31 -37 -42 0
36 37 43 0
-36 -37 -43 0
2 36 38 0
-2 -36 -38 0
7 37 38 0
-7 -37 -38 0
12 38 0
-12 -38 0
17 38 39 0
-17 -38 -39 0
22 38 40 0
-22 -38 -40 0
27 38 41 0
-27 -38 -41 0
32 38 42 0
-32 -38 -42 0
37 38 43 0
-37 -38 -43 0
3 36 39 0
-3 -36 -39 0
8 37 39 0
-8 -37 -39 0
13 38 39 0
-13 -38 -39 0
18 39 0
-18 -39 0
23 39 40 0
-23 -39 -40 0
28 39 41 0
-28 -39 -41 0
33 39 42 0
-33 -39 -42 0
38 39 43 0
-38 -39 -43 0
4 36 40 0
-4 -36 -40 0
9 37 40 0
-9 -37 -40 0
14 38 40 0
-14 -38 -40 0
19 39 40 0
-19 -39 -40 0
24 40 0
-24 -40 0
29 40 41 0
-29 -40 -41 0
34 40 42 0
-34 -40 -42 0
39 40 43 0
-39 -40 -43 0
5 36 41 0
-5 -36 -41 0
10 37 41 0
-10 -37 -41 0
15 38 41 0
-15 -38 -41 0
20 39 41 0
-20 -39 -41 0
25 40 41 0
-25 -40 -41 0
30 41 0
-30 -41 0
35 41 42 0
-35 -41 -42 0
40 41 43 0
-40 -41 -43 0
1 35 42 0
-1 -35 -42 0
6 36 42 0
-6 -36 -42 0
11 37 42 0
-11 -37 -42 0
16 38 42 0
-16 -38 -42 0
21 39 42 0
-21 -39 -42 0
26 40 42 0
-26 -40 -42 0
31 41 42 0
-31 -41 -42 0
36 42 0
-36 -42 0
41 42 43 0
-41 -42 -43 0
2 35 43 0
-2 -35 -43 0
7 36 43 0
-7 -36 -43 0
12 37 43 0
-12 -37 -43 0
17 38 43 0
-17 -38 -43 0
22 39 43 0
-22 -39 -43 0
27 40 43 0
-27 -40 -43 0
32 41 43 0
-32 -41 -43 0
37 42 43 0
-37 -42 -43 0
42 43 0
-42 -43 0
