certificates/rado_a5_c216_N43.drat
-43 0
42 0
-36 0
35 0
37 0
7 0
-4 0
-29 0
-41 0
-1 0
-6 0
-31 0
-11 0
-13 0
-38 0
3 0
5 0
15 0
30 0
40 0
18 0
28 0
32 0
25 0
12 0
2 0
17 0
20 0
10 0
22 0
14 0
24 0
27 0
39 0
-9 0
-19 0
0
